proyfinal/src/viki/013/andrea/andrea-localstore/experimentInOfficeAgust.take6/worker_2/bd800716-ecca-45a9-bed3-16e7f577138f.als.cnf.out
Reading from standard input... Use '--help' for help.
============================[ Problem Statistics ]=============================
|                                                                             |
|  Number of variables:         87638                                         |
|  Number of clauses:          161767                                         |
|  Parse time:                   0.03 s                                       |
|                                                                             |
============================[ Search Statistics ]==============================
| Conflicts |          ORIGINAL         |          LEARNT          | Progress |
|           |    Vars  Clauses Literals |    Limit  Clauses Lit/Cl |          |
===============================================================================
|       100 |   63907   110653   276552 |    40572      100     20 | 27.078 % |
|       250 |   63907   110653   276552 |    44630      250     41 | 27.078 % |
|       475 |   63882   110553   276323 |    49093      473     38 | 27.107 % |
|       812 |   63882   110509   276233 |    54002      809     45 | 27.107 % |
|      1318 |   63882   110509   276233 |    59402     1315     46 | 27.107 % |
|      2077 |   63882   110509   276233 |    65342     2074     54 | 27.107 % |
|      3216 |   63860   110417   276022 |    71877     3211     64 | 27.132 % |
|      4924 |   63860   110417   276022 |    79064     4919     75 | 27.132 % |
|      7486 |   63840   110333   275829 |    86971     7479     69 | 27.155 % |
|     11330 |   63822   110259   275658 |    95668    11319     79 | 27.176 % |
===============================================================================
restarts              : 62
conflicts             : 15176          (5845 /sec)
decisions             : 55485          (0.00 % random) (21370 /sec)
propagations          : 24490686       (9432566 /sec)
conflict literals     : 1195606        (54.01 % deleted)
Memory used           : 29.75 MB
CPU time              : 2.5964 s

INDETERMINATE
